p cnf 148 560
1 2 3 4 0
-1 -2 0
-1 -3 0
-1 -4 0
-2 -3 0
-2 -4 0
-3 -4 0
5 6 7 0
-5 -6 0
-5 -7 0
-6 -7 0
8 9 0
-8 -9 0
10 11 12 13 0
-10 -11 0
-10 -12 0
-10 -13 0
-11 -12 0
-11 -13 0
-12 -13 0
14 15 0
-14 -15 0
16 17 18 0
-16 -17 0
-16 -18 0
-17 -18 0
19 20 21 22 0
-19 -20 0
-19 -21 0
-19 -22 0
-20 -21 0
-20 -22 0
-21 -22 0
23 24 25 26 0
-23 -24 0
-23 -25 0
-23 -26 0
-24 -25 0
-24 -26 0
-25 -26 0
27 28 29 0
-27 -28 0
-27 -29 0
-28 -29 0
30 31 32 0
-30 -31 0
-30 -32 0
-31 -32 0
33 34 35 0
-33 -34 0
-33 -35 0
-34 -35 0
36 37 38 0
-36 -37 0
-36 -38 0
-37 -38 0
39 40 41 42 0
-39 -40 0
-39 -41 0
-39 -42 0
-40 -41 0
-40 -42 0
-41 -42 0
43 44 45 0
-43 -44 0
-43 -45 0
-44 -45 0
46 47 48 0
-46 -47 0
-46 -48 0
-47 -48 0
49 50 51 0
-49 -50 0
-49 -51 0
-50 -51 0
52 53 54 0
-52 -53 0
-52 -54 0
-53 -54 0
55 56 57 0
-55 -56 0
-55 -57 0
-56 -57 0
58 59 60 0
-58 -59 0
-58 -60 0
-59 -60 0
61 62 63 64 0
-61 -62 0
-61 -63 0
-61 -64 0
-62 -63 0
-62 -64 0
-63 -64 0
65 66 67 0
-65 -66 0
-65 -67 0
-66 -67 0
68 69 70 71 0
-68 -69 0
-68 -70 0
-68 -71 0
-69 -70 0
-69 -71 0
-70 -71 0
72 73 74 0
-72 -73 0
-72 -74 0
-73 -74 0
75 76 77 78 0
-75 -76 0
-75 -77 0
-75 -78 0
-76 -77 0
-76 -78 0
-77 -78 0
79 80 81 0
-79 -80 0
-79 -81 0
-80 -81 0
82 83 84 0
-82 -83 0
-82 -84 0
-83 -84 0
85 86 87 0
-85 -86 0
-85 -87 0
-86 -87 0
88 89 90 0
-88 -89 0
-88 -90 0
-89 -90 0
91 92 93 0
-91 -92 0
-91 -93 0
-92 -93 0
94 95 96 97 0
-94 -95 0
-94 -96 0
-94 -97 0
-95 -96 0
-95 -97 0
-96 -97 0
98 99 100 0
-98 -99 0
-98 -100 0
-99 -100 0
101 102 103 104 0
-101 -102 0
-101 -103 0
-101 -104 0
-102 -103 0
-102 -104 0
-103 -104 0
105 106 0
-105 -106 0
107 108 109 0
-107 -108 0
-107 -109 0
-108 -109 0
110 111 112 113 0
-110 -111 0
-110 -112 0
-110 -113 0
-111 -112 0
-111 -113 0
-112 -113 0
114 115 116 0
-114 -115 0
-114 -116 0
-115 -116 0
117 118 119 120 0
-117 -118 0
-117 -119 0
-117 -120 0
-118 -119 0
-118 -120 0
-119 -120 0
121 122 123 124 0
-121 -122 0
-121 -123 0
-121 -124 0
-122 -123 0
-122 -124 0
-123 -124 0
125 126 127 0
-125 -126 0
-125 -127 0
-126 -127 0
128 129 130 131 0
-128 -129 0
-128 -130 0
-128 -131 0
-129 -130 0
-129 -131 0
-130 -131 0
132 133 134 135 0
-132 -133 0
-132 -134 0
-132 -135 0
-133 -134 0
-133 -135 0
-134 -135 0
136 137 138 0
-136 -137 0
-136 -138 0
-137 -138 0
139 140 141 142 0
-139 -140 0
-139 -141 0
-139 -142 0
-140 -141 0
-140 -142 0
-141 -142 0
143 144 145 0
-143 -144 0
-143 -145 0
-144 -145 0
146 147 148 0
-146 -147 0
-146 -148 0
-147 -148 0
-1 -39 0
-2 -40 0
-3 -41 0
-4 -42 0
-1 -58 0
-2 -59 0
-4 -60 0
-1 -79 0
-2 -80 0
-3 -81 0
-1 -88 0
-3 -89 0
-4 -90 0
-2 -105 0
-4 -106 0
-5 -10 0
-6 -11 0
-7 -13 0
-5 -14 0
-7 -15 0
-5 -39 0
-6 -40 0
-7 -42 0
-5 -58 0
-6 -59 0
-7 -60 0
-5 -61 0
-6 -62 0
-7 -64 0
-5 -94 0
-6 -95 0
-7 -97 0
-5 -121 0
-6 -122 0
-7 -124 0
-5 -128 0
-6 -129 0
-7 -131 0
-6 -136 0
-7 -138 0
-8 -27 0
-9 -29 0
-8 -30 0
-9 -32 0
-9 -45 0
-8 -117 0
-9 -120 0
-8 -143 0
-9 -145 0
-10 -33 0
-11 -34 0
-13 -35 0
-10 -125 0
-12 -126 0
-13 -127 0
-10 -143 0
-11 -144 0
-13 -145 0
-14 -36 0
-15 -38 0
-14 -49 0
-15 -51 0
-14 -82 0
-15 -84 0
-15 -106 0
-14 -139 0
-15 -142 0
-14 -143 0
-15 -145 0
-16 -34 0
-18 -35 0
-16 -40 0
-17 -41 0
-18 -42 0
-17 -89 0
-18 -90 0
-16 -102 0
-17 -103 0
-18 -104 0
-16 -122 0
-17 -123 0
-18 -124 0
-19 -30 0
-21 -31 0
-22 -32 0
-19 -46 0
-20 -47 0
-22 -48 0
-19 -58 0
-20 -59 0
-22 -60 0
-19 -75 0
-20 -76 0
-21 -77 0
-22 -78 0
-19 -139 0
-20 -140 0
-21 -141 0
-22 -142 0
-19 -143 0
-20 -144 0
-22 -145 0
-23 -30 0
-25 -31 0
-26 -32 0
-23 -68 0
-24 -69 0
-25 -70 0
-26 -71 0
-27 -33 0
-28 -34 0
-29 -35 0
-27 -39 0
-28 -40 0
-29 -42 0
-27 -65 0
-29 -67 0
-28 -72 0
-29 -74 0
-27 -79 0
-28 -80 0
-27 -121 0
-28 -122 0
-29 -124 0
-27 -125 0
-29 -127 0
-27 -128 0
-28 -129 0
-29 -131 0
-27 -146 0
-29 -148 0
-30 -33 0
-32 -35 0
-31 -53 0
-32 -54 0
-30 -79 0
-31 -81 0
-30 -94 0
-31 -96 0
-32 -97 0
-30 -98 0
-32 -100 0
-32 -106 0
-31 -115 0
-32 -116 0
-34 -43 0
-35 -45 0
-33 -49 0
-34 -50 0
-35 -51 0
-33 -55 0
-34 -56 0
-33 -58 0
-34 -59 0
-35 -60 0
-33 -101 0
-34 -102 0
-35 -104 0
-34 -105 0
-35 -106 0
-34 -136 0
-35 -138 0
-36 -58 0
-37 -59 0
-38 -60 0
-36 -139 0
-37 -140 0
-38 -142 0
-40 -52 0
-41 -53 0
-42 -54 0
-39 -82 0
-41 -83 0
-42 -84 0
-39 -128 0
-40 -129 0
-41 -130 0
-42 -131 0
-39 -146 0
-41 -147 0
-42 -148 0
-43 -50 0
-45 -51 0
-47 -52 0
-48 -54 0
-46 -94 0
-47 -95 0
-48 -97 0
-46 -117 0
-47 -118 0
-48 -120 0
-49 -61 0
-50 -62 0
-51 -64 0
-49 -79 0
-50 -80 0
-49 -107 0
-50 -108 0
-51 -109 0
-49 -128 0
-50 -129 0
-51 -131 0
-53 -83 0
-54 -84 0
-52 -99 0
-54 -100 0
-52 -111 0
-53 -112 0
-54 -113 0
-52 -140 0
-53 -141 0
-54 -142 0
-53 -147 0
-54 -148 0
-56 -72 0
-57 -73 0
-55 -75 0
-56 -76 0
-57 -77 0
-58 -101 0
-59 -102 0
-60 -104 0
-58 -107 0
-59 -108 0
-60 -109 0
-58 -146 0
-60 -148 0
-61 -91 0
-62 -92 0
-64 -93 0
-61 -121 0
-62 -122 0
-63 -123 0
-64 -124 0
-65 -132 0
-66 -134 0
-67 -135 0
-65 -143 0
-67 -145 0
-68 -75 0
-69 -76 0
-70 -77 0
-71 -78 0
-68 -146 0
-70 -147 0
-71 -148 0
-72 -76 0
-73 -77 0
-74 -78 0
-72 -86 0
-74 -87 0
-72 -99 0
-74 -100 0
-73 -126 0
-74 -127 0
-79 -98 0
-80 -99 0
-79 -110 0
-80 -111 0
-81 -112 0
-85 -94 0
-86 -95 0
-87 -97 0
-85 -143 0
-86 -144 0
-87 -145 0
-90 -106 0
-88 -117 0
-89 -119 0
-90 -120 0
-91 -94 0
-92 -95 0
-93 -97 0
-91 -107 0
-92 -108 0
-93 -109 0
-91 -110 0
-92 -111 0
-93 -113 0
-91 -121 0
-92 -122 0
-93 -124 0
-94 -98 0
-95 -99 0
-97 -100 0
-94 -128 0
-95 -129 0
-96 -130 0
-97 -131 0
-94 -143 0
-95 -144 0
-97 -145 0
-98 -117 0
-99 -118 0
-100 -120 0
-101 -107 0
-102 -108 0
-104 -109 0
-101 -143 0
-102 -144 0
-104 -145 0
-105 -140 0
-106 -142 0
-107 -143 0
-108 -144 0
-109 -145 0
-110 -132 0
-111 -133 0
-112 -134 0
-113 -135 0
-110 -143 0
-111 -144 0
-113 -145 0
-114 -118 0
-115 -119 0
-116 -120 0
-114 -133 0
-115 -134 0
-116 -135 0
-117 -132 0
-118 -133 0
-119 -134 0
-120 -135 0
-125 -143 0
-127 -145 0
-125 -146 0
-126 -147 0
-127 -148 0
-132 -139 0
-133 -140 0
-134 -141 0
-135 -142 0
-132 -143 0
-133 -144 0
-135 -145 0
-136 -140 0
-137 -141 0
-138 -142 0
